p cnf 120 238
e 1 2 3 4 5 6 7 8 9 10 11 12 13 14 15 16 17 18 19 20 21 22 23 24 25 26 27 28 29 30 31 32 33 34 35 36 37 38 39 40 41 42 43 44 45 46 47 48 49 50 51 52 53 54 55 56 57 58 59 60 0
a 61 0
e 62 63 64 65 66 67 68 69 70 71 72 73 74 75 76 77 78 79 80 81 82 83 84 85 86 87 88 89 90 91 92 93 94 95 96 97 98 99 100 101 102 103 104 105 106 107 108 109 110 111 112 113 114 115 116 117 118 119 120 0
-1 -2 -62 0
-1 2 62 0
1 -2 62 0
1 2 -62 0
-62 -3 -63 0
-62 3 63 0
62 -3 63 0
62 3 -63 0
-63 -4 -64 0
-63 4 64 0
63 -4 64 0
63 4 -64 0
-64 -5 -65 0
-64 5 65 0
64 -5 65 0
64 5 -65 0
-65 -6 -66 0
-65 6 66 0
65 -6 66 0
65 6 -66 0
-66 -7 -67 0
-66 7 67 0
66 -7 67 0
66 7 -67 0
-67 -8 -68 0
-67 8 68 0
67 -8 68 0
67 8 -68 0
-68 -9 -69 0
-68 9 69 0
68 -9 69 0
68 9 -69 0
-69 -10 -70 0
-69 10 70 0
69 -10 70 0
69 10 -70 0
-70 -11 -71 0
-70 11 71 0
70 -11 71 0
70 11 -71 0
-71 -12 -72 0
-71 12 72 0
71 -12 72 0
71 12 -72 0
-72 -13 -73 0
-72 13 73 0
72 -13 73 0
72 13 -73 0
-73 -14 -74 0
-73 14 74 0
73 -14 74 0
73 14 -74 0
-74 -15 -75 0
-74 15 75 0
74 -15 75 0
74 15 -75 0
-75 -16 -76 0
-75 16 76 0
75 -16 76 0
75 16 -76 0
-76 -17 -77 0
-76 17 77 0
76 -17 77 0
76 17 -77 0
-77 -18 -78 0
-77 18 78 0
77 -18 78 0
77 18 -78 0
-78 -19 -79 0
-78 19 79 0
78 -19 79 0
78 19 -79 0
-79 -20 -80 0
-79 20 80 0
79 -20 80 0
79 20 -80 0
-80 -21 -81 0
-80 21 81 0
80 -21 81 0
80 21 -81 0
-81 -22 -82 0
-81 22 82 0
81 -22 82 0
81 22 -82 0
-82 -23 -83 0
-82 23 83 0
82 -23 83 0
82 23 -83 0
-83 -24 -84 0
-83 24 84 0
83 -24 84 0
83 24 -84 0
-84 -25 -85 0
-84 25 85 0
84 -25 85 0
84 25 -85 0
-85 -26 -86 0
-85 26 86 0
85 -26 86 0
85 26 -86 0
-86 -27 -87 0
-86 27 87 0
86 -27 87 0
86 27 -87 0
-87 -28 -88 0
-87 28 88 0
87 -28 88 0
87 28 -88 0
-88 -29 -89 0
-88 29 89 0
88 -29 89 0
88 29 -89 0
-89 -30 -90 0
-89 30 90 0
89 -30 90 0
89 30 -90 0
-90 -31 -91 0
-90 31 91 0
90 -31 91 0
90 31 -91 0
-91 -32 -92 0
-91 32 92 0
91 -32 92 0
91 32 -92 0
-92 -33 -93 0
-92 33 93 0
92 -33 93 0
92 33 -93 0
-93 -34 -94 0
-93 34 94 0
93 -34 94 0
93 34 -94 0
-94 -35 -95 0
-94 35 95 0
94 -35 95 0
94 35 -95 0
-95 -36 -96 0
-95 36 96 0
95 -36 96 0
95 36 -96 0
-96 -37 -97 0
-96 37 97 0
96 -37 97 0
96 37 -97 0
-97 -38 -98 0
-97 38 98 0
97 -38 98 0
97 38 -98 0
-98 -39 -99 0
-98 39 99 0
98 -39 99 0
98 39 -99 0
-99 -40 -100 0
-99 40 100 0
99 -40 100 0
99 40 -100 0
-100 -41 -101 0
-100 41 101 0
100 -41 101 0
100 41 -101 0
-101 -42 -102 0
-101 42 102 0
101 -42 102 0
101 42 -102 0
-102 -43 -103 0
-102 43 103 0
102 -43 103 0
102 43 -103 0
-103 -44 -104 0
-103 44 104 0
103 -44 104 0
103 44 -104 0
-104 -45 -105 0
-104 45 105 0
104 -45 105 0
104 45 -105 0
-105 -46 -106 0
-105 46 106 0
105 -46 106 0
105 46 -106 0
-106 -47 -107 0
-106 47 107 0
106 -47 107 0
106 47 -107 0
-107 -48 -108 0
-107 48 108 0
107 -48 108 0
107 48 -108 0
-108 -49 -109 0
-108 49 109 0
108 -49 109 0
108 49 -109 0
-109 -50 -110 0
-109 50 110 0
109 -50 110 0
109 50 -110 0
-110 -51 -111 0
-110 51 111 0
110 -51 111 0
110 51 -111 0
-111 -52 -112 0
-111 52 112 0
111 -52 112 0
111 52 -112 0
-112 -53 -113 0
-112 53 113 0
112 -53 113 0
112 53 -113 0
-113 -54 -114 0
-113 54 114 0
113 -54 114 0
113 54 -114 0
-114 -55 -115 0
-114 55 115 0
114 -55 115 0
114 55 -115 0
-115 -56 -116 0
-115 56 116 0
115 -56 116 0
115 56 -116 0
-116 -57 -117 0
-116 57 117 0
116 -57 117 0
116 57 -117 0
-117 -58 -118 0
-117 58 118 0
117 -58 118 0
117 58 -118 0
-118 -59 -119 0
-118 59 119 0
118 -59 119 0
118 59 -119 0
-119 -60 -120 0
-119 60 120 0
119 -60 120 0
119 60 -120 0
61 120 0
-61 -120 0
